0001 6
0002 6
0003 1
0004 1
0005 4
0006 3
0007 3
0008 3
0009 9
0010 4
0011 5
0012 9
0013 2
0014 5
0015 6
0016 5
0017 2
0018 8
0019 5
0020 12
0021 8
0022 12
0023 12
0024 12
0025 2
0026 12
0027 13
0028 1
0029 2
0030 6
0031 2
0032 2
0033 5
0034 5
0035 4
0036 4
0037 6
0038 8
0039 10
0040 8
0041 10
0042 12
0043 10
0044 10
0045 8
0046 8
0047 8
0048 2
0049 2
0050 5
0051 6
0052 9
0053 6
0054 4
0055 6
0056 9
0057 2
0058 1
0059 5
0060 12
0061 5
0062 10
0063 5
0064 8
0065 10
0066 10
0067 10
0068 4
0069 4
0070 4
0071 8
0072 11
0073 5
0074 1
0075 1
0076 1
0077 4
0078 5
0079 4
0080 2
0081 6
0082 9
0083 2
0084 9
0085 4
0086 2
0087 2
0088 2
0089 5
0090 8
0091 2
0092 5
0093 12
0094 5
0095 10
0096 5
0097 3
0098 4
0099 4
0100 5
0101 4
0102 4
0103 9
0104 9
0105 7
0106 7
0107 7
0108 7
0109 7
0110 7
0111 7
0112 2
0113 9
0114 6
0115 4
0116 9
0117 2
0118 5
0119 4
0120 5
0121 12
0122 10
0123 8
0124 2
0125 2
0126 5
0127 2
0128 5
0129 2
0130 11
0131 1
0132 13
0133 3
0134 12
0135 11
0136 6
0137 8
0138 10
0139 9
